SECTION Graph
Nodes 952
Edges 951

E 1 25 1
E 1 26 1
E 1 27 1
E 1 28 1
E 1 29 1
E 1 30 1
E 1 31 1
E 1 32 1
E 1 33 1
E 1 34 1
E 1 35 1
E 1 36 1
E 1 37 1
E 1 38 1
E 1 39 1
E 1 40 1
E 1 41 1
E 1 42 1
E 1 43 1
E 1 44 1
E 1 45 1
E 1 46 1
E 1 1060 1
E 1 1061 1
E 1 1062 1
E 1 1063 1
E 1 1064 1
E 1 1065 1
E 1 1066 1
E 1 1067 1
E 1 1068 1
E 1 1069 1
E 1 1070 1
E 1 1071 1
E 1 1072 1
E 1 1073 1
E 1 1074 1
E 1 1075 1
E 1 1076 1
E 1 1077 1
E 1 1078 1
E 1 1079 1
E 1 1080 1
E 1 1081 1
E 2 25 1
E 3 25 1
E 4 26 1
E 5 27 1
E 6 28 1
E 7 29 1
E 8 30 1
E 9 31 1
E 10 32 1
E 11 33 1
E 12 34 1
E 13 35 1
E 14 36 1
E 15 37 1
E 16 38 1
E 17 39 1
E 18 40 1
E 19 41 1
E 20 42 1
E 21 43 1
E 22 44 1
E 23 45 1
E 24 46 1
E 25 48 1
E 25 49 1
E 25 50 1
E 26 51 1
E 27 52 1
E 28 53 1
E 29 54 1
E 30 55 1
E 31 56 1
E 32 57 1
E 33 58 1
E 34 59 1
E 35 60 1
E 36 61 1
E 37 62 1
E 38 63 1
E 39 64 1
E 40 65 1
E 41 66 1
E 42 67 1
E 43 68 1
E 44 69 1
E 45 70 1
E 46 71 1
E 56 78 1
E 56 79 1
E 57 80 1
E 58 81 1
E 59 82 1
E 60 83 1
E 61 84 1
E 78 102 1
E 78 103 1
E 79 95 1
E 79 104 1
E 80 105 1
E 81 106 1
E 82 107 1
E 83 108 1
E 84 109 1
E 96 141 1
E 97 120 1
E 98 121 1
E 99 122 1
E 100 123 1
E 101 124 1
E 106 128 1
E 106 129 1
E 107 130 1
E 108 131 1
E 110 133 1
E 111 134 1
E 112 135 1
E 113 136 1
E 114 137 1
E 115 138 1
E 116 139 1
E 117 140 1
E 118 141 1
E 119 142 1
E 119 143 1
E 119 144 1
E 120 142 1
E 120 145 1
E 121 142 1
E 121 146 1
E 122 142 1
E 122 147 1
E 123 142 1
E 123 148 1
E 124 142 1
E 124 149 1
E 125 142 1
E 125 150 1
E 126 142 1
E 126 151 1
E 128 142 1
E 128 152 1
E 128 153 1
E 129 154 1
E 130 155 1
E 131 156 1
E 132 142 1
E 132 157 1
E 133 142 1
E 133 158 1
E 134 142 1
E 134 159 1
E 135 142 1
E 135 160 1
E 136 142 1
E 136 161 1
E 137 142 1
E 137 162 1
E 138 142 1
E 138 163 1
E 139 142 1
E 139 164 1
E 140 142 1
E 140 165 1
E 141 142 1
E 142 166 1
E 142 167 1
E 142 168 1
E 142 169 1
E 142 170 1
E 142 171 1
E 142 172 1
E 142 173 1
E 142 174 1
E 142 175 1
E 142 176 1
E 142 177 1
E 142 178 1
E 142 179 1
E 142 180 1
E 142 181 1
E 142 182 1
E 142 183 1
E 142 184 1
E 142 185 1
E 142 186 1
E 142 187 1
E 166 189 1
E 166 190 1
E 166 191 1
E 167 192 1
E 168 193 1
E 169 194 1
E 170 195 1
E 171 196 1
E 172 197 1
E 173 198 1
E 174 199 1
E 175 200 1
E 176 201 1
E 177 202 1
E 178 203 1
E 179 204 1
E 180 205 1
E 181 206 1
E 182 207 1
E 183 208 1
E 184 209 1
E 185 210 1
E 186 211 1
E 187 212 1
E 213 237 1
E 213 238 1
E 221 245 1
E 221 246 1
E 223 247 1
E 223 248 1
E 236 279 1
E 238 260 1
E 238 261 1
E 239 261 1
E 239 262 1
E 240 262 1
E 240 263 1
E 241 264 1
E 242 265 1
E 243 266 1
E 244 267 1
E 245 267 1
E 247 269 1
E 247 270 1
E 249 271 1
E 250 272 1
E 251 273 1
E 252 274 1
E 253 276 1
E 254 277 1
E 255 277 1
E 256 279 1
E 257 280 1
E 258 280 1
E 259 281 1
E 260 284 1
E 261 285 1
E 263 288 1
E 264 289 1
E 265 289 1
E 266 291 1
E 267 291 1
E 269 293 1
E 270 295 1
E 271 295 1
E 271 296 1
E 272 296 1
E 272 297 1
E 273 297 1
E 273 298 1
E 274 298 1
E 274 299 1
E 276 301 1
E 277 301 1
E 279 304 1
E 280 304 1
E 280 305 1
E 281 305 1
E 281 306 1
E 283 325 1
E 286 309 1
E 287 310 1
E 288 311 1
E 289 311 1
E 289 312 1
E 290 313 1
E 291 314 1
E 292 315 1
E 293 316 1
E 294 316 1
E 300 323 1
E 301 323 1
E 301 324 1
E 302 325 1
E 303 326 1
E 304 326 1
E 309 334 1
E 310 335 1
E 311 335 1
E 312 337 1
E 313 338 1
E 314 339 1
E 315 340 1
E 316 340 1
E 324 349 1
E 325 350 1
E 326 350 1
E 330 369 1
E 331 376 1
E 332 355 1
E 333 356 1
E 334 356 1
E 334 357 1
E 335 357 1
E 336 359 1
E 337 359 1
E 337 360 1
E 338 360 1
E 338 361 1
E 339 361 1
E 339 362 1
E 340 363 1
E 341 363 1
E 342 365 1
E 343 366 1
E 344 367 1
E 345 368 1
E 346 369 1
E 347 370 1
E 348 370 1
E 349 372 1
E 350 373 1
E 351 374 1
E 352 375 1
E 353 375 1
E 355 377 1
E 362 387 1
E 363 387 1
E 365 377 1
E 366 377 1
E 367 377 1
E 368 377 1
E 369 394 1
E 370 394 1
E 372 397 1
E 373 398 1
E 374 399 1
E 375 399 1
E 376 377 1
E 377 407 1
E 378 423 1
E 379 402 1
E 380 403 1
E 381 404 1
E 382 405 1
E 383 406 1
E 384 407 1
E 385 408 1
E 386 408 1
E 387 410 1
E 388 411 1
E 389 412 1
E 390 413 1
E 391 413 1
E 392 415 1
E 393 416 1
E 394 416 1
E 395 418 1
E 396 418 1
E 397 420 1
E 398 420 1
E 398 421 1
E 399 422 1
E 400 422 1
E 402 424 1
E 403 424 1
E 404 424 1
E 405 424 1
E 406 424 1
E 407 432 1
E 408 432 1
E 410 424 1
E 411 424 1
E 412 437 1
E 413 437 1
E 415 440 1
E 416 440 1
E 418 442 1
E 421 446 1
E 422 446 1
E 423 424 1
E 424 450 1
E 425 470 1
E 426 449 1
E 427 450 1
E 428 451 1
E 429 451 1
E 430 452 1
E 431 454 1
E 432 454 1
E 433 455 1
E 434 457 1
E 435 458 1
E 436 458 1
E 437 459 1
E 438 460 1
E 439 461 1
E 440 463 1
E 441 464 1
E 442 465 1
E 443 465 1
E 444 467 1
E 445 468 1
E 446 469 1
E 447 470 1
E 449 471 1
E 450 475 1
E 451 475 1
E 452 476 1
E 452 477 1
E 454 478 1
E 455 479 1
E 455 480 1
E 457 482 1
E 458 482 1
E 459 483 1
E 459 484 1
E 460 484 1
E 460 485 1
E 461 485 1
E 461 486 1
E 463 488 1
E 464 489 1
E 465 489 1
E 467 471 1
E 468 471 1
E 469 471 1
E 470 471 1
E 471 513 1
E 472 517 1
E 473 495 1
E 474 496 1
E 475 497 1
E 476 498 1
E 478 500 1
E 479 501 1
E 481 503 1
E 482 504 1
E 483 505 1
E 487 510 1
E 488 511 1
E 489 512 1
E 490 513 1
E 491 514 1
E 492 514 1
E 493 516 1
E 494 517 1
E 495 519 1
E 496 520 1
E 497 521 1
E 498 522 1
E 500 524 1
E 501 525 1
E 503 527 1
E 504 528 1
E 505 529 1
E 510 518 1
E 511 518 1
E 512 518 1
E 513 538 1
E 514 538 1
E 516 518 1
E 517 519 1
E 518 557 1
E 519 564 1
E 520 543 1
E 521 544 1
E 522 545 1
E 523 546 1
E 524 547 1
E 525 548 1
E 526 549 1
E 527 550 1
E 528 551 1
E 529 552 1
E 530 553 1
E 531 554 1
E 532 555 1
E 533 556 1
E 534 557 1
E 535 558 1
E 536 558 1
E 537 560 1
E 538 561 1
E 539 562 1
E 540 563 1
E 541 564 1
E 543 565 1
E 544 565 1
E 545 565 1
E 546 565 1
E 547 565 1
E 548 565 1
E 549 565 1
E 550 565 1
E 551 565 1
E 552 565 1
E 553 565 1
E 554 565 1
E 555 565 1
E 556 565 1
E 557 582 1
E 558 582 1
E 560 565 1
E 561 565 1
E 562 565 1
E 563 565 1
E 564 565 1
E 565 607 1
E 566 611 1
E 567 590 1
E 568 591 1
E 569 592 1
E 570 593 1
E 571 594 1
E 572 595 1
E 573 596 1
E 574 597 1
E 575 598 1
E 576 599 1
E 577 600 1
E 578 601 1
E 579 602 1
E 580 603 1
E 581 604 1
E 582 605 1
E 583 606 1
E 584 607 1
E 585 608 1
E 586 608 1
E 587 610 1
E 588 611 1
E 590 612 1
E 591 612 1
E 592 612 1
E 593 612 1
E 594 612 1
E 595 612 1
E 596 612 1
E 597 612 1
E 598 612 1
E 599 612 1
E 600 612 1
E 601 612 1
E 602 612 1
E 603 612 1
E 604 612 1
E 605 612 1
E 606 612 1
E 607 632 1
E 608 632 1
E 610 612 1
E 611 612 1
E 612 647 1
E 613 658 1
E 614 637 1
E 615 638 1
E 616 639 1
E 617 640 1
E 618 641 1
E 619 642 1
E 620 643 1
E 621 644 1
E 622 645 1
E 623 646 1
E 624 647 1
E 625 648 1
E 626 648 1
E 627 650 1
E 628 651 1
E 629 652 1
E 630 653 1
E 631 654 1
E 632 655 1
E 633 656 1
E 634 657 1
E 635 658 1
E 637 659 1
E 638 659 1
E 639 659 1
E 640 659 1
E 641 659 1
E 642 659 1
E 643 659 1
E 644 659 1
E 645 659 1
E 646 659 1
E 647 672 1
E 648 672 1
E 650 659 1
E 651 659 1
E 652 659 1
E 653 659 1
E 654 659 1
E 655 659 1
E 656 659 1
E 657 659 1
E 658 659 1
E 659 701 1
E 660 705 1
E 661 684 1
E 662 685 1
E 663 686 1
E 664 687 1
E 665 688 1
E 666 689 1
E 667 690 1
E 668 691 1
E 669 692 1
E 670 693 1
E 671 694 1
E 672 695 1
E 673 696 1
E 674 697 1
E 675 698 1
E 676 699 1
E 677 700 1
E 678 701 1
E 679 702 1
E 680 702 1
E 681 704 1
E 682 705 1
E 684 706 1
E 685 706 1
E 686 706 1
E 687 706 1
E 688 706 1
E 689 706 1
E 690 706 1
E 691 706 1
E 692 706 1
E 693 706 1
E 694 706 1
E 695 706 1
E 696 706 1
E 697 706 1
E 698 706 1
E 699 706 1
E 700 706 1
E 701 726 1
E 702 726 1
E 704 706 1
E 705 706 1
E 706 752 1
E 707 752 1
E 708 731 1
E 709 732 1
E 710 733 1
E 711 734 1
E 712 735 1
E 713 736 1
E 714 737 1
E 715 738 1
E 716 739 1
E 717 740 1
E 718 741 1
E 719 742 1
E 720 743 1
E 721 744 1
E 722 745 1
E 723 746 1
E 724 747 1
E 725 748 1
E 726 749 1
E 727 750 1
E 728 751 1
E 729 752 1
E 731 753 1
E 732 753 1
E 733 753 1
E 734 753 1
E 735 753 1
E 736 753 1
E 737 753 1
E 738 753 1
E 739 753 1
E 740 753 1
E 741 753 1
E 742 753 1
E 743 753 1
E 744 753 1
E 745 753 1
E 746 753 1
E 747 753 1
E 748 753 1
E 749 753 1
E 750 753 1
E 751 753 1
E 752 753 1
E 753 799 1
E 754 799 1
E 755 778 1
E 756 779 1
E 757 780 1
E 758 781 1
E 759 782 1
E 760 783 1
E 761 784 1
E 762 785 1
E 763 786 1
E 764 787 1
E 765 788 1
E 766 789 1
E 767 790 1
E 768 791 1
E 769 792 1
E 770 793 1
E 771 794 1
E 772 795 1
E 773 796 1
E 774 797 1
E 775 798 1
E 776 799 1
E 777 800 1
E 777 802 1
E 778 800 1
E 778 803 1
E 779 800 1
E 779 804 1
E 780 800 1
E 780 805 1
E 781 800 1
E 781 806 1
E 782 800 1
E 782 807 1
E 783 800 1
E 783 808 1
E 784 800 1
E 784 809 1
E 785 800 1
E 785 810 1
E 786 800 1
E 786 811 1
E 787 800 1
E 787 812 1
E 788 800 1
E 788 813 1
E 789 800 1
E 789 814 1
E 790 800 1
E 790 815 1
E 791 800 1
E 791 816 1
E 792 800 1
E 792 817 1
E 793 800 1
E 793 818 1
E 794 800 1
E 794 819 1
E 795 800 1
E 795 820 1
E 796 800 1
E 796 821 1
E 797 800 1
E 798 800 1
E 799 800 1
E 800 846 1
E 801 846 1
E 822 845 1
E 823 846 1
E 845 870 1
E 846 870 1
E 847 893 1
E 848 893 1
E 849 872 1
E 850 873 1
E 851 874 1
E 852 875 1
E 853 876 1
E 854 877 1
E 855 878 1
E 856 879 1
E 857 880 1
E 858 881 1
E 859 882 1
E 860 883 1
E 861 884 1
E 862 885 1
E 863 886 1
E 864 887 1
E 865 888 1
E 866 889 1
E 867 890 1
E 868 891 1
E 869 892 1
E 870 893 1
E 872 894 1
E 873 894 1
E 874 894 1
E 875 894 1
E 876 894 1
E 877 894 1
E 878 894 1
E 879 894 1
E 880 894 1
E 881 894 1
E 882 894 1
E 883 894 1
E 884 894 1
E 885 894 1
E 886 894 1
E 887 894 1
E 888 894 1
E 889 894 1
E 890 894 1
E 891 894 1
E 892 894 1
E 893 894 1
E 894 940 1
E 895 940 1
E 896 919 1
E 897 920 1
E 898 921 1
E 899 922 1
E 900 923 1
E 901 924 1
E 902 925 1
E 903 926 1
E 904 927 1
E 905 928 1
E 906 929 1
E 907 930 1
E 908 931 1
E 909 932 1
E 910 933 1
E 911 934 1
E 912 935 1
E 913 936 1
E 914 937 1
E 915 938 1
E 916 939 1
E 917 940 1
E 918 941 1
E 918 942 1
E 918 943 1
E 919 941 1
E 919 944 1
E 920 941 1
E 920 945 1
E 921 941 1
E 921 946 1
E 922 941 1
E 922 947 1
E 923 941 1
E 923 948 1
E 924 941 1
E 924 949 1
E 925 941 1
E 925 950 1
E 926 941 1
E 926 951 1
E 927 941 1
E 927 952 1
E 928 941 1
E 928 953 1
E 929 941 1
E 929 954 1
E 930 941 1
E 930 955 1
E 931 941 1
E 931 956 1
E 932 941 1
E 932 957 1
E 933 941 1
E 933 958 1
E 934 941 1
E 934 959 1
E 935 941 1
E 935 960 1
E 936 941 1
E 937 941 1
E 938 941 1
E 939 941 1
E 939 964 1
E 940 941 1
E 941 984 1
E 961 984 1
E 962 985 1
E 963 985 1
E 984 1009 1
E 985 1009 1
E 988 1034 1
E 989 1034 1
E 990 1013 1
E 991 1014 1
E 992 1015 1
E 993 1016 1
E 994 1017 1
E 995 1018 1
E 996 1019 1
E 997 1020 1
E 998 1021 1
E 999 1022 1
E 1000 1023 1
E 1001 1024 1
E 1002 1025 1
E 1003 1026 1
E 1004 1027 1
E 1005 1028 1
E 1006 1029 1
E 1007 1030 1
E 1008 1031 1
E 1009 1032 1
E 1010 1033 1
E 1011 1034 1
E 1013 1035 1
E 1014 1035 1
E 1015 1035 1
E 1016 1035 1
E 1017 1035 1
E 1018 1035 1
E 1019 1035 1
E 1020 1035 1
E 1021 1035 1
E 1022 1035 1
E 1023 1035 1
E 1024 1035 1
E 1025 1035 1
E 1026 1035 1
E 1027 1035 1
E 1028 1035 1
E 1029 1035 1
E 1030 1035 1
E 1031 1035 1
E 1032 1035 1
E 1033 1058 1
E 1034 1058 1
E 1035 1081 1
E 1036 1081 1
E 1037 1060 1
E 1038 1061 1
E 1039 1062 1
E 1040 1063 1
E 1041 1064 1
E 1042 1065 1
E 1043 1066 1
E 1044 1067 1
E 1045 1068 1
E 1046 1069 1
E 1047 1070 1
E 1048 1071 1
E 1049 1072 1
E 1050 1073 1
E 1051 1074 1
E 1052 1075 1
E 1053 1076 1
E 1054 1077 1
E 1055 1078 1
E 1056 1079 1
E 1057 1080 1
E 1058 1081 1
END
SECTION Terminals
T 1
T 2
T 3
T 4
T 5
T 6
T 7
T 8
T 9
T 10
T 11
T 12
T 13
T 14
T 15
T 16
T 17
T 18
T 19
T 20
T 21
T 22
T 23
T 24
T 48
T 49
T 50
T 51
T 52
T 53
T 54
T 55
T 56
T 57
T 58
T 59
T 60
T 61
T 62
T 63
T 64
T 65
T 66
T 67
T 68
T 69
T 70
T 71
T 95
T 96
T 97
T 98
T 99
T 100
T 101
T 102
T 103
T 104
T 105
T 106
T 107
T 108
T 109
T 110
T 111
T 112
T 113
T 114
T 115
T 116
T 117
T 118
T 142
T 143
T 144
T 145
T 146
T 147
T 148
T 149
T 150
T 151
T 152
T 153
T 154
T 155
T 156
T 157
T 158
T 159
T 160
T 161
T 162
T 163
T 164
T 165
T 189
T 190
T 191
T 192
T 193
T 194
T 195
T 196
T 197
T 198
T 199
T 200
T 201
T 202
T 203
T 204
T 205
T 206
T 207
T 208
T 209
T 210
T 211
T 212
T 236
T 237
T 238
T 239
T 240
T 241
T 242
T 243
T 244
T 245
T 246
T 247
T 248
T 249
T 250
T 251
T 252
T 253
T 254
T 255
T 256
T 257
T 258
T 259
T 283
T 284
T 285
T 286
T 287
T 288
T 289
T 290
T 291
T 292
T 293
T 294
T 295
T 296
T 297
T 298
T 299
T 300
T 301
T 302
T 303
T 304
T 305
T 306
T 330
T 331
T 332
T 333
T 334
T 335
T 336
T 337
T 338
T 339
T 340
T 341
T 342
T 343
T 344
T 345
T 346
T 347
T 348
T 349
T 350
T 351
T 352
T 353
T 377
T 378
T 379
T 380
T 381
T 382
T 383
T 384
T 385
T 386
T 387
T 388
T 389
T 390
T 391
T 392
T 393
T 394
T 395
T 396
T 397
T 398
T 399
T 400
T 424
T 425
T 426
T 427
T 428
T 429
T 430
T 431
T 432
T 433
T 434
T 435
T 436
T 437
T 438
T 439
T 440
T 441
T 442
T 443
T 444
T 445
T 446
T 447
T 471
T 472
T 473
T 474
T 475
T 476
T 477
T 478
T 479
T 480
T 481
T 482
T 483
T 484
T 485
T 486
T 487
T 488
T 489
T 490
T 491
T 492
T 493
T 494
T 518
T 519
T 520
T 521
T 522
T 523
T 524
T 525
T 526
T 527
T 528
T 529
T 530
T 531
T 532
T 533
T 534
T 535
T 536
T 537
T 538
T 539
T 540
T 541
T 565
T 566
T 567
T 568
T 569
T 570
T 571
T 572
T 573
T 574
T 575
T 576
T 577
T 578
T 579
T 580
T 581
T 582
T 583
T 584
T 585
T 586
T 587
T 588
T 612
T 613
T 614
T 615
T 616
T 617
T 618
T 619
T 620
T 621
T 622
T 623
T 624
T 625
T 626
T 627
T 628
T 629
T 630
T 631
T 632
T 633
T 634
T 635
T 659
T 660
T 661
T 662
T 663
T 664
T 665
T 666
T 667
T 668
T 669
T 670
T 671
T 672
T 673
T 674
T 675
T 676
T 677
T 678
T 679
T 680
T 681
T 682
T 706
T 707
T 708
T 709
T 710
T 711
T 712
T 713
T 714
T 715
T 716
T 717
T 718
T 719
T 720
T 721
T 722
T 723
T 724
T 725
T 726
T 727
T 728
T 729
T 753
T 754
T 755
T 756
T 757
T 758
T 759
T 760
T 761
T 762
T 763
T 764
T 765
T 766
T 767
T 768
T 769
T 770
T 771
T 772
T 773
T 774
T 775
T 776
T 800
T 801
T 802
T 803
T 804
T 805
T 806
T 807
T 808
T 809
T 810
T 811
T 812
T 813
T 814
T 815
T 816
T 817
T 818
T 819
T 820
T 821
T 822
T 823
T 847
T 848
T 849
T 850
T 851
T 852
T 853
T 854
T 855
T 856
T 857
T 858
T 859
T 860
T 861
T 862
T 863
T 864
T 865
T 866
T 867
T 868
T 869
T 870
T 894
T 895
T 896
T 897
T 898
T 899
T 900
T 901
T 902
T 903
T 904
T 905
T 906
T 907
T 908
T 909
T 910
T 911
T 912
T 913
T 914
T 915
T 916
T 917
T 941
T 942
T 943
T 944
T 945
T 946
T 947
T 948
T 949
T 950
T 951
T 952
T 953
T 954
T 955
T 956
T 957
T 958
T 959
T 960
T 961
T 962
T 963
T 964
T 988
T 989
T 990
T 991
T 992
T 993
T 994
T 995
T 996
T 997
T 998
T 999
T 1000
T 1001
T 1002
T 1003
T 1004
T 1005
T 1006
T 1007
T 1008
T 1009
T 1010
T 1011
T 1035
T 1036
T 1037
T 1038
T 1039
T 1040
T 1041
T 1042
T 1043
T 1044
T 1045
T 1046
T 1047
T 1048
T 1049
T 1050
T 1051
T 1052
T 1053
T 1054
T 1055
T 1056
T 1057
T 1058
END
SECTION Cost
951
END
